FeNi
1.0
7.02       0.0    0.0
0.0        7.02   0.0
0.0        0.0    7.02
Fe         Ni
28         4
Cartesian
1.755      1.755  3.51   Fe
1.755      1.755  7.02   Fe
1.755      3.51   1.755  Fe
1.755      3.51   5.265  Fe
1.755      5.265  3.51   Fe
1.755      5.265  7.02   Fe
1.755      7.02   1.755  Fe
3.51       1.755  1.755  Fe
3.51       1.755  5.265  Fe
3.51       3.51   3.51   Fe
3.51       3.51   7.02   Fe
3.51       5.265  1.755  Fe
3.51       5.265  5.265  Fe
3.51       7.02   3.51   Fe
3.51       7.02   7.02   Fe
5.265      1.755  3.51   Fe
5.265      1.755  7.02   Fe
5.265      3.51   1.755  Fe
5.265      3.51   5.265  Fe
5.265      5.265  3.51   Fe
5.265      5.265  7.02   Fe
5.265      7.02   1.755  Fe
7.02       1.755  1.755  Fe
7.02       1.755  5.265  Fe
7.02       3.51   3.51   Fe
7.02       3.51   7.02   Fe
7.02       5.265  5.265  Fe
7.02       7.02   7.02   Fe
1.755      7.02   5.265  Ni
5.265      7.02   5.265  Ni
7.02       5.265  1.755  Ni
7.02       7.02   3.51   Ni