comment
   3.51000000000000
     2.0000000000000000      0.0000000000000000      0.0000000000000000
     0.0000000000000000      2.0000000000000000      0.0000000000000000
     0.0000000000000000      0.0000000000000000      2.0000000000000000
   Fe    Ni    Fe    Fe    Ni    Fe    Ni    Fe    
   5     1     2     7     1     6     2     8     
Selective dynamics
Direct
  0.5000000000000000   0.2500000000000000   0.2500000000000000       T    T    T
  1.0000000000000000   0.2500000000000000   0.2500000000000000       T    T    T
  0.2500000000000000   0.5000000000000000   0.2500000000000000       T    T    T
  0.7500000000000000   0.5000000000000000   0.2500000000000000       T    T    T
  0.5000000000000000   0.7500000000000000   0.2500000000000000       T    T    T
  1.0000000000000000   0.7500000000000000   0.2500000000000000       T    T    T
  0.2500000000000000   1.0000000000000000   0.2500000000000000       T    T    T
  0.7500000000000000   1.0000000000000000   0.2500000000000000       T    T    T
  0.2500000000000000   0.2500000000000000   0.5000000000000000       T    T    T
  0.7500000000000000   0.2500000000000000   0.5000000000000000       T    T    T
  0.5000000000000000   0.5000000000000000   0.5000000000000000       T    T    T
  1.0000000000000000   0.5000000000000000   0.5000000000000000       T    T    T
  0.2500000000000000   0.7500000000000000   0.5000000000000000       T    T    T
  0.7500000000000000   0.7500000000000000   0.5000000000000000       T    T    T
  0.5000000000000000   1.0000000000000000   0.5000000000000000       T    T    T
  1.0000000000000000   1.0000000000000000   0.5000000000000000       T    T    T
  0.5000000000000000   0.2500000000000000   0.7500000000000000       T    T    T
  1.0000000000000000   0.2500000000000000   0.7500000000000000       T    T    T
  0.2500000000000000   0.5000000000000000   0.7500000000000000       T    T    T
  0.7500000000000000   0.5000000000000000   0.7500000000000000       T    T    T
  0.5000000000000000   0.7500000000000000   0.7500000000000000       T    T    T
  1.0000000000000000   0.7500000000000000   0.7500000000000000       T    T    T
  0.2500000000000000   1.0000000000000000   0.7500000000000000       T    T    T
  0.7500000000000000   1.0000000000000000   0.7500000000000000       T    T    T
  0.2500000000000000   0.2500000000000000   1.0000000000000000       T    T    T
  0.7500000000000000   0.2500000000000000   1.0000000000000000       T    T    T
  0.5000000000000000   0.5000000000000000   1.0000000000000000       T    T    T
  1.0000000000000000   0.5000000000000000   1.0000000000000000       T    T    T
  0.2500000000000000   0.7500000000000000   1.0000000000000000       T    T    T
  0.7500000000000000   0.7500000000000000   1.0000000000000000       T    T    T
  0.5000000000000000   1.0000000000000000   1.0000000000000000       T    T    T
  1.0000000000000000   1.0000000000000000   1.0000000000000000       T    T    T
